30
1 0 40
2 0 3
2 1 49
3 0 13
3 1 31
3 2 40
4 0 40
4 1 30
4 2 34
4 3 43
5 0 21
5 1 30
5 2 20
5 3 10
5 4 17
6 0 24
6 1 16
6 2 33
6 3 19
6 4 21
6 5 11
7 0 4
7 1 4
7 2 25
7 3 43
7 4 31
7 5 24
7 6 34
8 0 8
8 1 18
8 2 1
8 3 5
8 4 25
8 5 26
8 6 42
8 7 2
9 0 42
9 1 32
9 2 25
9 3 11
9 4 20
9 5 38
9 6 47
9 7 4
9 8 24
10 0 18
10 1 22
10 2 42
10 3 28
10 4 22
10 5 37
10 6 38
10 7 18
10 8 15
10 9 21
11 0 15
11 1 15
11 2 35
11 3 20
11 4 4
11 5 43
11 6 23
11 7 10
11 8 36
11 9 44
11 10 43
12 0 13
12 1 5
12 2 7
12 3 6
12 4 11
12 5 18
12 6 23
12 7 4
12 8 18
12 9 3
12 10 14
12 11 32
13 0 21
13 1 2
13 2 16
13 3 38
13 4 19
13 5 44
13 6 48
13 7 5
13 8 6
13 9 16
13 10 23
13 11 16
13 12 45
14 0 34
14 1 42
14 2 46
14 3 9
14 4 6
14 5 22
14 6 47
14 7 10
14 8 40
14 9 12
14 10 10
14 11 12
14 12 37
14 13 27
15 0 24
15 1 24
15 2 46
15 3 31
15 4 2
15 5 12
15 6 22
15 7 11
15 8 24
15 9 23
15 10 18
15 11 21
15 12 33
15 13 49
15 14 27
16 0 45
16 1 15
16 2 15
16 3 37
16 4 32
16 5 18
16 6 3
16 7 43
16 8 46
16 9 18
16 10 14
16 11 44
16 12 36
16 13 23
16 14 34
16 15 46
17 0 6
17 1 27
17 2 25
17 3 37
17 4 14
17 5 47
17 6 50
17 7 12
17 8 10
17 9 27
17 10 16
17 11 47
17 12 4
17 13 7
17 14 17
17 15 28
17 16 50
18 0 31
18 1 49
18 2 6
18 3 40
18 4 3
18 5 40
18 6 8
18 7 25
18 8 5
18 9 47
18 10 48
18 11 12
18 12 41
18 13 42
18 14 50
18 15 29
18 16 18
18 17 12
19 0 50
19 1 7
19 2 36
19 3 14
19 4 3
19 5 34
19 6 32
19 7 38
19 8 5
19 9 19
19 10 21
19 11 10
19 12 19
19 13 12
19 14 7
19 15 26
19 16 41
19 17 2
19 18 33
20 0 15
20 1 24
20 2 45
20 3 6
20 4 28
20 5 16
20 6 32
20 7 12
20 8 10
20 9 15
20 10 21
20 11 11
20 12 13
20 13 9
20 14 15
20 15 21
20 16 4
20 17 32
20 18 36
20 19 38
21 0 7
21 1 40
21 2 6
21 3 34
21 4 16
21 5 2
21 6 11
21 7 15
21 8 39
21 9 36
21 10 20
21 11 39
21 12 28
21 13 11
21 14 26
21 15 9
21 16 36
21 17 25
21 18 5
21 19 14
21 20 34
22 0 49
22 1 21
22 2 16
22 3 5
22 4 23
22 5 13
22 6 19
22 7 9
22 8 23
22 9 6
22 10 48
22 11 22
22 12 4
22 13 23
22 14 2
22 15 26
22 16 12
22 17 43
22 18 33
22 19 10
22 20 10
22 21 19
23 0 33
23 1 43
23 2 21
23 3 34
23 4 15
23 5 11
23 6 48
23 7 18
23 8 43
23 9 37
23 10 34
23 11 38
23 12 17
23 13 17
23 14 18
23 15 4
23 16 47
23 17 9
23 18 24
23 19 37
23 20 48
23 21 31
23 22 36
24 0 10
24 1 17
24 2 37
24 3 50
24 4 31
24 5 33
24 6 40
24 7 42
24 8 6
24 9 43
24 10 45
24 11 15
24 12 35
24 13 27
24 14 17
24 15 37
24 16 40
24 17 41
24 18 27
24 19 12
24 20 7
24 21 5
24 22 38
24 23 19
25 0 26
25 1 2
25 2 33
25 3 35
25 4 22
25 5 43
25 6 29
25 7 48
25 8 43
25 9 33
25 10 7
25 11 19
25 12 28
25 13 14
25 14 22
25 15 50
25 16 29
25 17 45
25 18 47
25 19 2
25 20 5
25 21 33
25 22 47
25 23 6
25 24 32
26 0 34
26 1 6
26 2 15
26 3 2
26 4 17
26 5 29
26 6 35
26 7 11
26 8 46
26 9 18
26 10 40
26 11 19
26 12 34
26 13 21
26 14 2
26 15 45
26 16 1
26 17 22
26 18 1
26 19 28
26 20 28
26 21 49
26 22 26
26 23 31
26 24 46
26 25 1
27 0 18
27 1 37
27 2 35
27 3 33
27 4 13
27 5 4
27 6 8
27 7 28
27 8 50
27 9 39
27 10 9
27 11 27
27 12 38
27 13 43
27 14 39
27 15 18
27 16 48
27 17 8
27 18 7
27 19 29
27 20 47
27 21 40
27 22 5
27 23 43
27 24 46
27 25 23
27 26 23
28 0 17
28 1 21
28 2 11
28 3 15
28 4 2
28 5 9
28 6 48
28 7 34
28 8 2
28 9 46
28 10 23
28 11 49
28 12 5
28 13 28
28 14 38
28 15 49
28 16 4
28 17 50
28 18 13
28 19 19
28 20 11
28 21 16
28 22 46
28 23 12
28 24 50
28 25 3
28 26 14
28 27 39
29 0 22
29 1 50
29 2 9
29 3 16
29 4 38
29 5 23
29 6 30
29 7 19
29 8 48
29 9 16
29 10 37
29 11 12
29 12 34
29 13 49
29 14 21
29 15 21
29 16 17
29 17 1
29 18 25
29 19 41
29 20 26
29 21 24
29 22 30
29 23 39
29 24 3
29 25 38
29 26 28
29 27 49
29 28 12
